50
400
319
318
315
313
306
302
299
295
292
287
279
271
271
270
266
253
241
225
225
217
212
209
208
207
205
194
193
184
173
170
170
164
162
157
149
135
133
129
127
121
107
106
106
103
98
81
74
69
49
43
